NAME: concorde6
TYPE: TSP
RUN_TIME: 0.001
DISTANCE: 119
COMMENT: Solution by max williams
DIMENSION: 6
EDGE_WEIGHT_TYPE: EUC_2D
NODE_COORD_SECTION
1 30.147058 79.746830
2 45.996730 78.270040
3 61.192810 78.270040
4 60.049020 48.734177
5 43.545753 49.156116
6 30.228758 51.476790
